83
0 11 19 44 73 35 36 43 17 9 
62 75 68 6 8 3 51 53 55 77 
23 47 64 41 65 21 70 22 1 45 
20 74 52 80 30 60 37 31 71 38 
57 2 25 46 18 61 16 78 32 48 
56 82 14 58 13 24 34 49 69 5 
42 54 26 7 40 76 59 33 10 66 
67 79 39 29 4 81 15 50 28 63 
27 12 72 
